This is Ipopt version 3.10.0, running with linear solver ma27.

Number of nonzeros in equality constraint Jacobian...:        0
Number of nonzeros in inequality constraint Jacobian.:       48
Number of nonzeros in Lagrangian Hessian.............:        0

Total number of variables............................:        6
                     variables with only lower bounds:        0
                variables with lower and upper bounds:        6
                     variables with only upper bounds:        0
Total number of equality constraints.................:        0
Total number of inequality constraints...............:        8
        inequality constraints with only lower bounds:        0
   inequality constraints with lower and upper bounds:        0
        inequality constraints with only upper bounds:        8

iter    objective    inf_pr   inf_du lg(mu)  ||d||  lg(rg) alpha_du alpha_pr  ls
   0  7.6980719e+00 2.27e+00 1.34e+00   0.0 0.00e+00    -  0.00e+00 0.00e+00   0
   1  9.4948018e+00 1.39e+00 1.03e+01  -0.4 1.60e+00    -  5.02e-01 5.15e-01f  1
   2  9.6414003e+00 7.23e-01 4.77e+00  -0.4 1.05e+00    -  9.57e-01 5.56e-01h  1
   3  1.2808300e+01 4.86e-01 2.37e+01  -0.3 9.24e-01    -  6.90e-01 8.25e-01h  1
   4  1.2870076e+01 2.11e-01 2.31e+00  -0.5 6.65e-01    -  7.54e-01 7.24e-01f  1
   5  1.3779857e+01 1.03e-01 1.89e+00  -1.5 6.26e-01    -  8.31e-01 6.13e-01h  1
   6  1.4009857e+01 4.40e-02 3.15e+00  -1.8 7.42e-01    -  1.00e+00 5.23e-01h  1
   7  1.4102228e+01 2.71e-02 3.12e+00  -2.6 2.62e-01    -  1.00e+00 3.91e-01h  1
   8  1.4443965e+01 1.13e-02 2.76e+00  -2.7 3.23e-01    -  1.00e+00 8.41e-01h  1
   9  1.4649478e+01 2.45e-04 2.44e+00  -3.5 1.55e-01    -  1.00e+00 9.98e-01h  1
iter    objective    inf_pr   inf_du lg(mu)  ||d||  lg(rg) alpha_du alpha_pr  ls
  10  1.4649261e+01 9.30e-06 1.75e-01  -5.2 2.70e-02    -  1.00e+00 9.25e-01h  1
  11  1.4649119e+01 3.28e-06 7.92e-03  -6.6 5.23e-03    -  1.00e+00 9.94e-01h  1
  12  1.4649243e+01 2.41e-05 7.49e-03  -8.2 6.32e-05    -  1.00e+00 1.00e+00h  1

Number of Iterations....: 12

                                   (scaled)                 (unscaled)
Objective...............:   1.4649243192831637e+01    1.4649243192831637e+01
Dual infeasibility......:   7.4906317240456466e-03    7.4906317240456466e-03
Constraint violation....:   2.4104705565706343e-05    2.4104705565706343e-05
Complementarity.........:   6.2432168186074640e-09    6.2432168186074640e-09
Overall NLP error.......:   7.4906317240456466e-03    7.4906317240456466e-03


Number of objective function evaluations             = 13
Number of objective gradient evaluations             = 13
Number of equality constraint evaluations            = 0
Number of inequality constraint evaluations          = 13
Number of equality constraint Jacobian evaluations   = 0
Number of inequality constraint Jacobian evaluations = 13
Number of Lagrangian Hessian evaluations             = 0
Total CPU secs in IPOPT (w/o function evaluations)   =      0.025
Total CPU secs in NLP function evaluations           =   1920.948

EXIT: Stopping optimization at current point as requested by user.
